
Gurobi 11.0.3 (linux64) logging started Fri Apr 17 01:37:05 2026

Set parameter LogFile to value "tree/results/ctmc/ctmc_depth-3_run-4/Full MIP/LogFile_FullModel.txt"
Gurobi Optimizer version 11.0.3 build v11.0.3rc0 (linux64 - "CentOS Linux 7 (Core)")

CPU model: Intel(R) Xeon(R) Platinum 8260 CPU @ 2.40GHz, instruction set [SSE2|AVX|AVX2|AVX512]
Thread count: 96 physical cores, 192 logical processors, using up to 32 threads

Optimize a model with 88709 rows, 62111 columns and 1073381 nonzeros
Model fingerprint: 0xd8ce5d0f
Model has 8832 general constraints
Variable types: 35514 continuous, 26597 integer (26597 binary)
Coefficient statistics:
  Matrix range     [9e-04, 1e+04]
  Objective range  [9e-04, 1e+04]
  Bounds range     [1e+00, 1e+03]
  RHS range        [1e-04, 1e+03]

User MIP start produced solution with objective -105099 (0.31s)
Loaded user MIP start with objective -105099

Presolve added 8824 rows and 26496 columns
Presolve time: 1.67s
Presolved: 97533 rows, 88607 columns, 1126421 nonzeros
Presolved model has 26496 SOS constraint(s)
Variable types: 35514 continuous, 53093 integer (53093 binary)

Deterministic concurrent LP optimizer: primal simplex, dual simplex, and barrier
Showing barrier log only...

Root relaxation presolved: 97533 rows, 88607 columns, 1126421 nonzeros

Root barrier log...

Ordering time: 0.05s

Barrier statistics:
 Dense cols : 84
 AA' NZ     : 1.107e+06
 Factor NZ  : 3.467e+06 (roughly 100 MB of memory)
 Factor Ops : 1.353e+08 (less than 1 second per iteration)
 Threads    : 30

                  Objective                Residual
Iter       Primal          Dual         Primal    Dual     Compl     Time
   0  -1.22191061e+05  1.70137822e+09  1.10e+04 0.00e+00  8.05e+05     4s
   1  -7.13536821e+04  2.55813133e+09  1.21e+03 3.96e+01  1.80e+05     4s
   2  -5.06360761e+04  2.16048074e+09  1.26e+02 5.85e+00  2.61e+04     4s
   3  -1.26107622e+04  5.63996890e+08  1.24e+01 5.91e-01  3.65e+03     5s
   4  -1.28157500e+03  6.58086089e+07  1.23e+00 5.90e-02  3.83e+02     5s
   5  -1.27543781e+02  7.54882482e+06  1.23e-01 5.90e-03  4.12e+01     5s
   6  -1.21398271e+01  7.65821054e+05  1.24e-02 5.94e-04  4.13e+00     5s
   7  -5.91032888e-01  8.13564602e+04  1.34e-03 6.30e-05  4.38e-01     6s
   8   6.53202615e-01  1.31495335e+04  1.84e-04 1.02e-05  7.08e-02     6s
   9   9.65502591e-01  1.47243517e+03  3.69e-05 9.88e-07  7.89e-03     6s
  10   9.96016682e-01  1.48991419e+02  3.66e-06 9.93e-08  7.93e-04     6s
  11   9.99601519e-01  1.59377755e+01  3.63e-07 9.94e-09  8.00e-05     7s
  12   9.99960152e-01  2.49378957e+00  3.63e-08 9.94e-10  8.00e-06     7s
  13   9.99996015e-01  1.15077824e+00  3.59e-09 9.95e-11  8.07e-07     7s
  14   9.99999601e-01  1.01507782e+00  3.59e-10 9.95e-12  8.07e-08     7s
  15   9.99999960e-01  1.00152191e+00  3.59e-11 9.96e-13  8.14e-09     8s
  16   9.99999996e-01  1.00015219e+00  3.75e-12 9.96e-14  8.14e-10     8s
  17   1.00000000e+00  1.00001522e+00  6.82e-13 9.96e-15  8.14e-11     8s
  18   1.00000000e+00  1.00000152e+00  4.55e-13 9.96e-16  8.14e-12     9s
  19   1.00000000e+00  1.00000015e+00  4.26e-13 9.96e-17  8.14e-13     9s
  20   1.00000000e+00  1.00000002e+00  3.98e-13 1.42e-14  8.14e-14     9s

Barrier solved model in 20 iterations and 9.11 seconds (5.80 work units)
Optimal objective 1.00000000e+00


Root crossover log...

    5133 DPushes remaining with DInf 0.0000000e+00                 9s
       0 DPushes remaining with DInf 0.0000000e+00                 9s

   32737 PPushes remaining with PInf 0.0000000e+00                 9s
       0 PPushes remaining with PInf 0.0000000e+00                10s

  Push phase complete: Pinf 0.0000000e+00, Dinf 0.0000000e+00     10s


Root simplex log...

Iteration    Objective       Primal Inf.    Dual Inf.      Time
   32741    1.0000000e+00   0.000000e+00   0.000000e+00     10s
   32741    1.0000000e+00   0.000000e+00   0.000000e+00     10s
Concurrent spin time: 3.39s (can be avoided by choosing Method=3)

Solved with barrier

Root relaxation: objective 1.000000e+00, 32741 iterations, 7.68 seconds (4.48 work units)
Total elapsed time = 31.61s (DegenMoves)

    Nodes    |    Current Node    |     Objective Bounds      |     Work
 Expl Unexpl |  Obj  Depth IntInf | Incumbent    BestBd   Gap | It/Node Time

     0     0    1.00000    0 6729 -105099.46    1.00000   100%     -   32s
     0     2    1.00000    0 6729 -105099.46    1.00000   100%     -  154s
H    1     4                    -105099.4638    1.00000   100%  8413  199s
     3     8    1.00000    2 6727 -105099.46    1.00000   100%  2806  200s
    15    32    1.00000    4 6727 -105099.46    1.00000   100%   564  465s
H   31    64                       0.4438406    1.00000   125%  2477  699s
    63    96    1.00000    6 6735    0.44384    1.00000   125%  6918  995s
    95   128    1.00000    7 6834    0.44384    1.00000   125%  4698 1414s
   127   160    1.00000    8 6833    0.44384    1.00000   125%  3538 2198s
   159   192    1.00000    9 6859    0.44384    1.00000   125%  2864 2981s
   191   226    1.00000   10 6897    0.44384    1.00000   125%  2507 3053s
   225   435    1.00000   11 7036    0.44384    1.00000   125%  3434 3600s

Explored 434 nodes (896421 simplex iterations) in 3600.66 seconds (2452.28 work units)
Thread count was 32 (of 192 available processors)

Solution count 3: 0.443841 -105099 -105099 

Time limit reached
Best objective 4.438405797103e-01, best bound 1.000000000000e+00, gap 125.3061%

User-callback calls 2251573, time in user-callback 11.91 sec
